(set-info :smt-lib-version 2.6)
(set-logic QF_NIA)
(set-info :source |
Generated by: Cristina Borralleras, Daniel Larraz, Albert Oliveras, Enric Rodriguez-Carbonell, Albert Rubio
Generated on: 2017-04-27
Generator: VeryMax
Application: Termination proving
Target solver: barcelogic
|)
(set-info :license "https://creativecommons.org/licenses/by/4.0/")
(set-info :category "industrial")
(set-info :status sat)
(declare-fun Nl3arg11 () Int)
(declare-fun Nl3arg21 () Int)
(declare-fun Nl3arg31 () Int)
(declare-fun Nl3arg41 () Int)
(declare-fun lam0n0 () Int)
(declare-fun lam0n1 () Int)
(declare-fun lam0n2 () Int)
(declare-fun lam0n3 () Int)
(declare-fun lam0n4 () Int)
(declare-fun lam0n5 () Int)
(declare-fun lam0n6 () Int)
(declare-fun lam0n7 () Int)
(declare-fun lam0n8 () Int)
(declare-fun UndefCntr0_CT () Int)
(declare-fun Nl3CT1 () Int)
(declare-fun UndefCntr0_arg1 () Int)
(declare-fun UndefCntr0_arg2 () Int)
(declare-fun UndefCntr0_arg3 () Int)
(declare-fun UndefCntr0_arg4 () Int)
(declare-fun UndefCntr0_undef13 () Int)
(declare-fun UndefCntr0_undef14 () Int)
(declare-fun UndefCntr0_undef15 () Int)
(declare-fun UndefCntr0_undef16 () Int)
(declare-fun lam1n0 () Int)
(declare-fun lam1n1 () Int)
(declare-fun lam1n2 () Int)
(declare-fun lam1n3 () Int)
(declare-fun lam1n4 () Int)
(declare-fun lam1n5 () Int)
(declare-fun lam1n6 () Int)
(declare-fun lam1n7 () Int)
(declare-fun lam1n8 () Int)
(declare-fun lam2n0 () Int)
(declare-fun lam2n1 () Int)
(declare-fun lam2n2 () Int)
(declare-fun lam3n0 () Int)
(declare-fun lam3n1 () Int)
(declare-fun lam3n2 () Int)
(declare-fun lam3n3 () Int)
(declare-fun lam3n4 () Int)
(declare-fun lam3n5 () Int)
(declare-fun lam3n6 () Int)
(declare-fun lam3n7 () Int)
(declare-fun lam3n8 () Int)
(declare-fun lam4n0 () Int)
(declare-fun lam4n1 () Int)
(declare-fun lam4n2 () Int)
(declare-fun lam4n3 () Int)
(declare-fun lam4n4 () Int)
(declare-fun lam4n5 () Int)
(declare-fun lam4n6 () Int)
(declare-fun lam4n7 () Int)
(declare-fun lam5n0 () Int)
(declare-fun lam5n1 () Int)
(declare-fun lam5n2 () Int)
(declare-fun lam5n3 () Int)
(declare-fun lam5n4 () Int)
(declare-fun lam5n5 () Int)
(declare-fun lam5n6 () Int)
(declare-fun lam5n7 () Int)
(declare-fun undef11 () Int)
(declare-fun undef9 () Int)
(declare-fun undef10 () Int)
(declare-fun undef12 () Int)
(declare-fun arg1 () Int)
(declare-fun undef41 () Int)
(declare-fun undef42 () Int)
(declare-fun arg2 () Int)
(declare-fun undef43 () Int)
(declare-fun undef44 () Int)
(declare-fun undef57 () Int)
(declare-fun undef45 () Int)
(declare-fun undef58 () Int)
(declare-fun undef59 () Int)
(declare-fun undef60 () Int)
(declare-fun undef49 () Int)
(declare-fun FV_arg1_1 () Int)
(declare-fun FV_arg2_1 () Int)
(declare-fun FV_arg3_1 () Int)
(declare-fun FV_arg4_1 () Int)
(declare-fun lam6n0 () Int)
(declare-fun lam6n1 () Int)
(declare-fun lam6n2 () Int)
(declare-fun lam6n3 () Int)
(declare-fun lam6n4 () Int)
(declare-fun lam6n5 () Int)
(declare-fun lam7n0 () Int)
(declare-fun lam7n1 () Int)
(declare-fun lam7n2 () Int)
(declare-fun lam7n3 () Int)
(declare-fun lam7n4 () Int)
(declare-fun lam7n5 () Int)
(declare-fun UndefDef0undef14_CT () Int)
(declare-fun UndefDef0undef14_arg1 () Int)
(declare-fun UndefDef0undef14_arg2 () Int)
(declare-fun UndefDef0undef14_arg3 () Int)
(declare-fun UndefDef0undef14_arg4 () Int)
(declare-fun lam8n0 () Int)
(declare-fun lam8n1 () Int)
(declare-fun lam8n2 () Int)
(declare-fun lam8n3 () Int)
(declare-fun lam8n4 () Int)
(declare-fun lam8n5 () Int)
(declare-fun lam9n0 () Int)
(declare-fun lam9n1 () Int)
(declare-fun lam9n2 () Int)
(declare-fun lam9n3 () Int)
(declare-fun lam9n4 () Int)
(declare-fun lam9n5 () Int)
(declare-fun FV_undef13_0 () Int)
(declare-fun FV_undef15_0 () Int)
(declare-fun FV_arg1_0 () Int)
(declare-fun FV_arg2_0 () Int)
(declare-fun FV_arg3_0 () Int)
(declare-fun FV_arg4_0 () Int)
(declare-fun FV_undef14_0 () Int)
(declare-fun FV_undef16_0 () Int)
(declare-fun lam10n0 () Int)
(declare-fun lam10n1 () Int)
(declare-fun lam10n2 () Int)
(declare-fun lam10n3 () Int)
(declare-fun lam11n0 () Int)
(declare-fun lam11n1 () Int)
(declare-fun lam11n2 () Int)
(declare-fun lam12n0 () Int)
(declare-fun lam12n1 () Int)
(declare-fun FV_arg1_2 () Int)
(declare-fun FV_arg2_2 () Int)
(declare-fun FV_arg3_2 () Int)
(declare-fun FV_arg4_2 () Int)
(declare-fun FV_undef13_2 () Int)
(declare-fun FV_undef14_2 () Int)
(declare-fun FV_undef15_2 () Int)
(assert ( and ( <= ( - 1 ) Nl3arg11 ) ( <= Nl3arg11 1 ) ( <= ( - 1 ) Nl3arg21 ) ( <= Nl3arg21 1 ) ( <= ( - 1 ) Nl3arg31 ) ( <= Nl3arg31 1 ) ( <= ( - 1 ) Nl3arg41 ) ( <= Nl3arg41 1 ) ))
(assert ( or ( and ( >= lam0n0 0 ) ( >= lam0n1 0 ) ( >= lam0n2 0 ) ( >= lam0n3 0 ) ( >= lam0n4 0 ) ( >= lam0n5 0 ) ( >= lam0n6 0 ) ( >= lam0n7 0 ) ( >= lam0n8 0 ) ( > ( + ( * 3 lam0n0 ) ( * 1 lam0n1 ) ( * 1 lam0n2 ) ( * 1 lam0n3 ) ( * 1 lam0n4 ) ( * UndefCntr0_CT lam0n7 ) ( * Nl3CT1 lam0n8 ) ( - 1 ) ) 0 ) ( = ( + ( * ( - 1 ) lam0n0 ) ( * UndefCntr0_arg1 lam0n7 ) ( * Nl3arg11 lam0n8 ) ) 0 ) ( = ( + ( * ( - 1 ) lam0n1 ) ( * ( - 1 ) lam0n5 ) ( * UndefCntr0_arg2 lam0n7 ) ( * Nl3arg21 lam0n8 ) ) 0 ) ( = ( + ( * ( - 1 ) lam0n2 ) ( * UndefCntr0_arg3 lam0n7 ) ( * Nl3arg31 lam0n8 ) ) 0 ) ( = ( + ( * UndefCntr0_arg4 lam0n7 ) ( * Nl3arg41 lam0n8 ) ) 0 ) ( = ( + ( * ( - 1 ) lam0n3 ) ( * UndefCntr0_undef13 lam0n7 ) ) 0 ) ( = ( + ( * ( - 1 ) lam0n4 ) ( * 1 lam0n5 ) ( * UndefCntr0_undef14 lam0n7 ) ) 0 ) ( = ( + ( * ( - 1 ) lam0n6 ) ( * UndefCntr0_undef15 lam0n7 ) ) 0 ) ( = ( * UndefCntr0_undef16 lam0n7 ) 0 ) ) ( and ( >= lam1n0 0 ) ( >= lam1n1 0 ) ( >= lam1n2 0 ) ( >= lam1n3 0 ) ( >= lam1n4 0 ) ( >= lam1n5 0 ) ( >= lam1n6 0 ) ( >= lam1n7 0 ) ( >= lam1n8 0 ) ( > ( + ( * 3 lam1n0 ) ( * 1 lam1n1 ) ( * 1 lam1n2 ) ( * 1 lam1n3 ) ( * 1 lam1n4 ) ( * UndefCntr0_CT lam1n7 ) ( * Nl3CT1 lam1n8 ) ( - 1 ( + ( + ( + ( + Nl3CT1 ( * Nl3arg11 0 ) ) ( * Nl3arg21 0 ) ) ( * Nl3arg31 0 ) ) ( * Nl3arg41 0 ) ) ) ) 0 ) ( = ( + ( * ( - 1 ) lam1n0 ) ( * UndefCntr0_arg1 lam1n7 ) ( * Nl3arg11 lam1n8 ) ) 0 ) ( = ( + ( * ( - 1 ) lam1n1 ) ( * ( - 1 ) lam1n5 ) ( * UndefCntr0_arg2 lam1n7 ) ( * Nl3arg21 lam1n8 ) ) 0 ) ( = ( + ( * ( - 1 ) lam1n2 ) ( * UndefCntr0_arg3 lam1n7 ) ( * Nl3arg31 lam1n8 ) ) 0 ) ( = ( + ( * UndefCntr0_arg4 lam1n7 ) ( * Nl3arg41 lam1n8 ) ) 0 ) ( = ( + ( * ( - 1 ) lam1n3 ) ( * UndefCntr0_undef13 lam1n7 ) ( - ( + 0 ( * Nl3arg11 1 ) ) ) ) 0 ) ( = ( + ( * ( - 1 ) lam1n4 ) ( * 1 lam1n5 ) ( * UndefCntr0_undef14 lam1n7 ) ( - ( + 0 ( * Nl3arg21 1 ) ) ) ) 0 ) ( = ( + ( * ( - 1 ) lam1n6 ) ( * UndefCntr0_undef15 lam1n7 ) ( - ( + 0 ( * Nl3arg31 1 ) ) ) ) 0 ) ( = ( + ( * UndefCntr0_undef16 lam1n7 ) ( - ( + 0 ( * Nl3arg41 1 ) ) ) ) 0 ) ) ))
(assert ( <= ( + Nl3CT1 ( * Nl3arg11 FV_arg1_1 ) ( * Nl3arg21 FV_arg2_1 ) ( * Nl3arg31 FV_arg3_1 ) ( * Nl3arg41 FV_arg4_1 ) ) 0 ))
(assert ( or ( not ( = UndefCntr0_arg1 0 ) ) ( not ( = UndefCntr0_arg2 0 ) ) ( not ( = UndefCntr0_arg3 0 ) ) ( not ( = UndefCntr0_arg4 0 ) ) ( not ( = UndefCntr0_undef13 0 ) ) ( not ( = UndefCntr0_undef14 0 ) ) ( not ( = UndefCntr0_undef15 0 ) ) ( not ( = UndefCntr0_undef16 0 ) ) ( = UndefCntr0_CT 0 ) ))
(assert ( or ( and ( = UndefCntr0_arg1 0 ) ( = UndefCntr0_arg2 0 ) ( = UndefCntr0_arg3 0 ) ( = UndefCntr0_arg4 0 ) ) ( or ( not ( = UndefCntr0_undef13 0 ) ) ( not ( = UndefCntr0_undef14 0 ) ) ( not ( = UndefCntr0_undef15 0 ) ) ( not ( = UndefCntr0_undef16 0 ) ) ) ))
(assert ( or ( and ( >= lam6n0 0 ) ( >= lam6n1 0 ) ( >= lam6n2 0 ) ( >= lam6n3 0 ) ( >= lam6n4 0 ) ( >= lam6n5 0 ) ( > ( + ( * 3 lam6n0 ) ( * 1 lam6n1 ) ( * 1 lam6n2 ) ( * 1 lam6n3 ) ( * Nl3CT1 lam6n5 ) ( - 1 ) ) 0 ) ( = ( + ( * ( - 1 ) lam6n0 ) ( * Nl3arg11 lam6n5 ) ) 0 ) ( = ( + ( * ( - 1 ) lam6n1 ) ( * Nl3arg21 lam6n5 ) ) 0 ) ( = ( + ( * ( - 1 ) lam6n2 ) ( * Nl3arg31 lam6n5 ) ) 0 ) ( = ( * Nl3arg41 lam6n5 ) 0 ) ( = ( * ( - 1 ) lam6n3 ) 0 ) ( = ( * ( - 1 ) lam6n4 ) 0 ) ) ( and ( and ( >= lam7n0 0 ) ( >= lam7n1 0 ) ( >= lam7n2 0 ) ( >= lam7n3 0 ) ( >= lam7n4 0 ) ( >= lam7n5 0 ) ( > ( + ( * 3 lam7n0 ) ( * 1 lam7n1 ) ( * 1 lam7n2 ) ( * 1 lam7n3 ) ( * Nl3CT1 lam7n5 ) ( - 1 ( + 1 ( * ( - 1 ) UndefDef0undef14_CT ) ) ) ) 0 ) ( = ( + ( * ( - 1 ) lam7n0 ) ( * Nl3arg11 lam7n5 ) ( - ( * UndefDef0undef14_arg1 ( - 1 ) ) ) ) 0 ) ( = ( + ( * ( - 1 ) lam7n1 ) ( * Nl3arg21 lam7n5 ) ( - ( * UndefDef0undef14_arg2 ( - 1 ) ) ) ) 0 ) ( = ( + ( * ( - 1 ) lam7n2 ) ( * Nl3arg31 lam7n5 ) ( - ( * UndefDef0undef14_arg3 ( - 1 ) ) ) ) 0 ) ( = ( + ( * Nl3arg41 lam7n5 ) ( - ( * UndefDef0undef14_arg4 ( - 1 ) ) ) ) 0 ) ( = ( * ( - 1 ) lam7n3 ) 0 ) ( = ( * ( - 1 ) lam7n4 ) 0 ) ) ( and ( >= lam8n0 0 ) ( >= lam8n1 0 ) ( >= lam8n2 0 ) ( >= lam8n3 0 ) ( >= lam8n4 0 ) ( >= lam8n5 0 ) ( > ( + ( * 3 lam8n0 ) ( * 1 lam8n1 ) ( * 1 lam8n2 ) ( * 1 lam8n3 ) ( * Nl3CT1 lam8n5 ) ( - 1 ( + ( + 0 0 ) ( * 1 UndefDef0undef14_CT ) ) ) ) 0 ) ( = ( + ( * ( - 1 ) lam8n0 ) ( * Nl3arg11 lam8n5 ) ( - ( * UndefDef0undef14_arg1 1 ) ) ) 0 ) ( = ( + ( * ( - 1 ) lam8n1 ) ( * Nl3arg21 lam8n5 ) ( - ( + ( - 1 ) ( * UndefDef0undef14_arg2 1 ) ) ) ) 0 ) ( = ( + ( * ( - 1 ) lam8n2 ) ( * Nl3arg31 lam8n5 ) ( - ( * UndefDef0undef14_arg3 1 ) ) ) 0 ) ( = ( + ( * Nl3arg41 lam8n5 ) ( - ( * UndefDef0undef14_arg4 1 ) ) ) 0 ) ( = ( * ( - 1 ) lam8n3 ) 0 ) ( = ( * ( - 1 ) lam8n4 ) 0 ) ) ( or ( = UndefCntr0_undef14 0 ) ( and ( >= lam9n0 0 ) ( >= lam9n1 0 ) ( >= lam9n2 0 ) ( >= lam9n3 0 ) ( >= lam9n4 0 ) ( >= lam9n5 0 ) ( > ( + ( * 3 lam9n0 ) ( * 1 lam9n1 ) ( * 1 lam9n2 ) ( * 1 lam9n3 ) ( * Nl3CT1 lam9n5 ) ( - 1 ( + ( + ( + ( + ( + ( + ( + ( + UndefCntr0_CT 0 ) 0 ) 0 ) 0 ) 0 ) ( * UndefCntr0_undef14 UndefDef0undef14_CT ) ) 0 ) 0 ) ) ) 0 ) ( = ( + ( * ( - 1 ) lam9n0 ) ( * Nl3arg11 lam9n5 ) ( - ( + UndefCntr0_arg1 ( * UndefDef0undef14_arg1 UndefCntr0_undef14 ) ) ) ) 0 ) ( = ( + ( * ( - 1 ) lam9n1 ) ( * Nl3arg21 lam9n5 ) ( - ( + UndefCntr0_arg2 ( * UndefDef0undef14_arg2 UndefCntr0_undef14 ) ) ) ) 0 ) ( = ( + ( * ( - 1 ) lam9n2 ) ( * Nl3arg31 lam9n5 ) ( - ( + UndefCntr0_arg3 ( * UndefDef0undef14_arg3 UndefCntr0_undef14 ) ) ) ) 0 ) ( = ( + ( * Nl3arg41 lam9n5 ) ( - ( + UndefCntr0_arg4 ( * UndefDef0undef14_arg4 UndefCntr0_undef14 ) ) ) ) 0 ) ( = ( + ( * ( - 1 ) lam9n3 ) ( - UndefCntr0_undef13 ) ) 0 ) ( = ( + ( * ( - 1 ) lam9n4 ) ( - UndefCntr0_undef15 ) ) 0 ) ( = ( - UndefCntr0_undef16 ) 0 ) ) ) ) ))
(assert ( or ( = UndefCntr0_undef13 0 ) ( and ( and ( = UndefCntr0_arg1 0 ) ( = UndefCntr0_arg2 0 ) ( = UndefCntr0_arg3 0 ) ( = UndefCntr0_arg4 0 ) ( = UndefCntr0_undef14 0 ) ( = UndefCntr0_undef16 0 ) ( = UndefCntr0_undef15 0 ) ) ( or ( and ( <= ( + 1 ( * ( - 1 ) FV_undef13_0 ) ) 0 ) ( <= ( + UndefCntr0_CT ( * UndefCntr0_undef13 FV_undef13_0 ) ( * UndefCntr0_undef15 FV_undef15_0 ) ( * UndefCntr0_arg1 FV_arg1_0 ) ( * UndefCntr0_arg2 FV_arg2_0 ) ( * UndefCntr0_arg3 FV_arg3_0 ) ( * UndefCntr0_arg4 FV_arg4_0 ) ( * UndefCntr0_undef14 FV_undef14_0 ) ( * UndefCntr0_undef16 FV_undef16_0 ) ) 0 ) ) ( and ( <= ( + 1 ( * ( - 1 ) FV_undef13_0 ) ) 0 ) ( <= ( + UndefCntr0_CT ( * UndefCntr0_undef13 FV_undef13_0 ) ( * UndefCntr0_undef15 FV_undef15_0 ) ( * UndefCntr0_arg1 FV_arg1_0 ) ( * UndefCntr0_arg2 FV_arg2_0 ) ( * UndefCntr0_arg3 FV_arg3_0 ) ( * UndefCntr0_arg4 FV_arg4_0 ) ( * UndefCntr0_undef14 FV_undef14_0 ) ( * UndefCntr0_undef16 FV_undef16_0 ) ) 0 ) ) ) ) ))
(assert ( or ( = UndefCntr0_undef15 0 ) ( and ( and ( = UndefCntr0_arg1 0 ) ( = UndefCntr0_arg2 0 ) ( = UndefCntr0_arg3 0 ) ( = UndefCntr0_arg4 0 ) ( = UndefCntr0_undef14 0 ) ( = UndefCntr0_undef16 0 ) ( = UndefCntr0_undef13 0 ) ) ( or ( and ( <= ( * ( - 1 ) FV_undef15_0 ) 0 ) ( <= ( + UndefCntr0_CT ( * UndefCntr0_undef13 FV_undef13_0 ) ( * UndefCntr0_undef15 FV_undef15_0 ) ( * UndefCntr0_arg1 FV_arg1_0 ) ( * UndefCntr0_arg2 FV_arg2_0 ) ( * UndefCntr0_arg3 FV_arg3_0 ) ( * UndefCntr0_arg4 FV_arg4_0 ) ( * UndefCntr0_undef14 FV_undef14_0 ) ( * UndefCntr0_undef16 FV_undef16_0 ) ) 0 ) ) ( and ( <= ( * ( - 1 ) FV_undef15_0 ) 0 ) ( <= ( + UndefCntr0_CT ( * UndefCntr0_undef13 FV_undef13_0 ) ( * UndefCntr0_undef15 FV_undef15_0 ) ( * UndefCntr0_arg1 FV_arg1_0 ) ( * UndefCntr0_arg2 FV_arg2_0 ) ( * UndefCntr0_arg3 FV_arg3_0 ) ( * UndefCntr0_arg4 FV_arg4_0 ) ( * UndefCntr0_undef14 FV_undef14_0 ) ( * UndefCntr0_undef16 FV_undef16_0 ) ) 0 ) ) ) ) ))
(assert ( or ( and ( >= lam10n0 0 ) ( >= lam10n1 0 ) ( >= lam10n2 0 ) ( >= lam10n3 0 ) ( > ( + ( * 3 lam10n0 ) ( * 1 lam10n1 ) ( * Nl3CT1 lam10n3 ) ( - 1 ) ) 0 ) ( = ( + ( * ( - 1 ) lam10n0 ) ( * Nl3arg11 lam10n3 ) ) 0 ) ( = ( + ( * ( - 1 ) lam10n1 ) ( * Nl3arg21 lam10n3 ) ) 0 ) ( = ( + ( * 1 lam10n2 ) ( * Nl3arg31 lam10n3 ) ) 0 ) ( = ( * Nl3arg41 lam10n3 ) 0 ) ) ( and ( >= lam11n0 0 ) ( >= lam11n1 0 ) ( >= lam11n2 0 ) ( > ( + ( * 3 lam11n0 ) ( * Nl3CT1 lam11n2 ) ( - 1 ) ) 0 ) ( = ( + ( * ( - 1 ) lam11n0 ) ( * Nl3arg11 lam11n2 ) ) 0 ) ( = ( + ( * 1 lam11n1 ) ( * Nl3arg21 lam11n2 ) ) 0 ) ( = ( * Nl3arg31 lam11n2 ) 0 ) ( = ( * Nl3arg41 lam11n2 ) 0 ) ) ( and ( >= lam12n0 0 ) ( >= lam12n1 0 ) ( > ( + ( * ( - 2 ) lam12n0 ) ( * Nl3CT1 lam12n1 ) ( - 1 ) ) 0 ) ( = ( + ( * 1 lam12n0 ) ( * Nl3arg11 lam12n1 ) ) 0 ) ( = ( * Nl3arg21 lam12n1 ) 0 ) ( = ( * Nl3arg31 lam12n1 ) 0 ) ( = ( * Nl3arg41 lam12n1 ) 0 ) ) ))
(assert ( and ( <= ( + Nl3CT1 ( * Nl3arg11 FV_arg1_2 ) ( * Nl3arg21 FV_arg2_2 ) ( * Nl3arg31 FV_arg3_2 ) ( * Nl3arg41 FV_arg4_2 ) ) 0 ) ( and ( <= ( + 3 ( * ( - 1 ) FV_arg1_2 ) ) 0 ) ( <= ( + 1 ( * ( - 1 ) FV_arg2_2 ) ) 0 ) ( <= ( + 1 ( * ( - 1 ) FV_arg3_2 ) ) 0 ) ( <= ( + 1 ( * ( - 1 ) FV_undef13_2 ) ) 0 ) ( <= ( + 1 ( * ( - 1 ) FV_undef14_2 ) ) 0 ) ( <= ( + ( * ( - 1 ) FV_arg2_2 ) FV_undef14_2 ) 0 ) ( <= ( * ( - 1 ) FV_undef15_2 ) 0 ) ) ))
(check-sat)
(exit)
